12 12 3

minsum minsum minsum

748 153 527 459 586 57 380 720 152 6 20 64
40 915 539 281 106 873 592 427 614 75 74 15
882 478 251 566 834 695 331 231 639 79 48 64

1 1 1 0 0 0 0 0 0 0 0 0
0 0 0 1 1 1 0 0 0 0 0 0
0 0 0 0 0 0 1 1 1 0 0 0
1 0 0 0 0 0 0 0 0 -1 0 0
0 1 0 0 0 0 0 0 0 0 -1 0
0 0 1 0 0 0 0 0 0 0 0 -1
0 0 0 1 0 0 0 0 0 -1 0 0
0 0 0 0 1 0 0 0 0 0 -1 0
0 0 0 0 0 1 0 0 0 0 0 -1
0 0 0 0 0 0 1 0 0 -1 0 0
0 0 0 0 0 0 0 1 0 0 -1 0
0 0 0 0 0 0 0 0 1 0 0 -1

2 1
2 1
2 1
1 0
1 0
1 0
1 0
1 0
1 0
1 0
1 0
1 0

0 0 0 0 0 0 0 0 0 0 0 0
1 1 1 1 1 1 1 1 1 1 1 1
